unsat
(:added-eqs                   151580
 :arith-eq-adapter            1528
 :arith-bound-propagations-lp 10304
 :arith-conflicts             32
 :arith-diseq                 9198
 :arith-fixed-eqs             4308
 :arith-lower                 10623
 :arith-make-feasible         5763
 :arith-max-columns           598
 :arith-max-rows              264
 :arith-offset-eqs            5047
 :arith-upper                 12962
 :binary-propagations         407749
 :conflicts                   2435
 :decisions                   121910
 :del-clause                  5257
 :elim-unconstrained          2
 :max-memory                  26.73
 :memory                      21.10
 :minimized-lits              4101
 :mk-bool-var                 8237
 :mk-clause                   6081
 :mk-clause-binary            7971
 :num-allocs                  26554854
 :num-checks                  1
 :propagations                518859
 :restarts                    20
 :rlimit-count                7513370
 :time                        1.56
 :total-time                  1.64)
